0 0 0 0
0 1 2 0
0 2 0 0
0 3 0 0
0 4 0 6
0 5 0 4
0 6 0 7
0 7 2 7
0 8 1 4
0 9 2 1
0 10 1 9
0 11 2 8
0 12 0 10
0 13 1 16
0 14 0 10
0 15 2 12
0 16 2 12
0 17 0 12
0 18 0 19
0 19 2 16
0 20 2 6
0 21 1 13
0 22 0 16
0 23 0 19
0 24 1 13
0 25 0 20
0 26 0 18
0 27 0 22
0 28 1 22
0 29 0 27
0 30 2 16
0 31 0 28
